c This is a random SAT instance with 10 variables and 20 clauses
p cnf 10 20
-8 -4 6 -7 -2 2 -3 -10 -9 0
-5 0
5 1 -3 9 -10 7 0
-9 -7 -2 10 9 0
-6 2 -3 5 0
9 0
6 3 -1 -9 2 -7 0
8 -9 -5 6 10 7 5 9 -1 -10 0
-4 0
3 -5 1 -9 10 -4 -6 5 0
6 1 -9 0
-4 7 2 9 3 -1 -5 -3 0
6 1 -1 -4 -9 -6 0
2 6 -3 0
4 -7 7 -6 2 -4 10 0
1 0
5 9 8 -7 0
5 4 -1 -10 -9 0
1 7 -8 -10 -2 -6 3 0
-4 -9 8 5 -3 -8 2 9 -5 6 0